CMD:
./solvers/bin/cadical --plain --no-reduce -t 1600 ./data/cnfs//pdtpmsns2/pdtpmsns2.22.cnf

c --- [ banner ] -------------------------------------------------------------
c 
c CaDiCaL SAT Solver
c Copyright (c) 2016-2024
c A. Biere, M. Fleury, N. Froleyks, K. Fazekas, F. Pollitt, T. Faller
c JKU Linz, University of Freiburg, TU Wien
c 
c Version 2.1.3 5296d3d2a9bf48c154ab2acb5e44625776d821bf
c g++ (Gentoo 12.3.1_p20230526 p2) 12.3.1 20230526 -Wall -Wextra -O3 -DNDEBUG
c Sat Aug 9 07:26:21 PDT 2025 Linux cedar2.int.cedar.computecanada.ca 5.14.0-362.24.2.el9_3.x86_64 x86_64
c 
c --- [ limit ] --------------------------------------------------------------
c 
c setting time limit to 1600 seconds real time (due to '-t 1600')
c 
c --- [ parsing input ] ------------------------------------------------------
c 
c reading DIMACS file from './data/cnfs//pdtpmsns2/pdtpmsns2.22.cnf'
c opening file to read './data/cnfs//pdtpmsns2/pdtpmsns2.22.cnf'
c found 'p cnf 43781 129502' header
c parsed 129502 clauses in 0.02 seconds process time
c 
c --- [ options ] ------------------------------------------------------------
c 
c   --compact=false                (different from default 'true')
c   --decompose=false              (different from default 'true')
c   --deduplicate=false            (different from default 'true')
c   --elim=false                   (different from default 'true')
c   --probe=false                  (different from default 'true')
c   --reduce=false                 (different from default 'true')
c   --subsume=false                (different from default 'true')
c   --ternary=false                (different from default 'true')
c   --transred=false               (different from default 'true')
c   --vivify=false                 (different from default 'true')
c 
c --- [ solving ] ------------------------------------------------------------
c 
c time measured in process time since initialization
c 
c  seconds  reductions  redundant  irredundant
c         MB    restarts       trail       variables
c          level   conflicts       glue         remaining
c 
c *  0.02 23  0 0   0    0    0  0% 0 124690 40149 92%
c {  0.03 24  0 0   0    0    0  0% 0 124690 40149 92%
c i  0.05 24 214 0   0  292  276 44% 2 124690 40147 92%
c i  0.06 24 159 0  30  480  448 37% 2 124690 40139 92%
c }  0.13 24 96 0 135 1000  928 33% 2 124690 40139 92%
c [  0.13 24  0 0 135 1000  928  0% 0 124690 40139 92%
c O  0.13 24 119 0 135 1004  931 55% 3 124690 40139 92%
c i  0.15 25 61 0 135 1203 1114 33% 11 124690 40138 92%
c i  0.15 25 52 0 135 1320 1223 31% 11 124690 40136 92%
c i  0.16 25 47 0 135 1408 1304 28% 11 124690 40134 92%
c i  0.16 25 47 0 135 1419 1314 28% 11 124690 40133 92%
c i  0.16 25 46 0 135 1447 1340 28% 10 124690 40117 92%
c i  0.18 25 37 0 135 1677 1544 25% 10 124690 40108 92%
c i  0.18 25 37 0 135 1695 1560 24% 10 124690 40101 92%
c i  0.18 25 37 0 135 1696 1560 24% 10 124690 40094 92%
c i  0.18 25 37 0 135 1706 1566 24% 10 124690 40076 92%
c i  0.18 25 36 0 135 1724 1580 24% 10 124690 40075 92%
c i  0.18 25 36 0 135 1725 1580 24% 10 124690 40069 92%
c i  0.19 25 36 0 135 1748 1598 24% 9 124690 40068 92%
c i  0.19 25 35 0 135 1763 1611 24% 9 124690 40057 91%
c 
c  seconds  reductions  redundant  irredundant
c         MB    restarts       trail       variables
c          level   conflicts       glue         remaining
c 
c i  0.19 25 35 0 135 1768 1615 25% 9 124690 40056 91%
c i  0.19 25 35 0 135 1777 1622 25% 9 124690 40054 91%
c i  0.19 25 35 0 135 1780 1624 25% 9 124690 40053 91%
c i  0.19 25 35 0 135 1781 1624 25% 9 124690 40043 91%
c i  0.19 25 35 0 135 1782 1624 25% 9 124690 40042 91%
c i  0.19 25 35 0 135 1783 1624 25% 9 124690 39969 91%
c i  0.19 25 35 0 135 1785 1625 25% 9 124690 39968 91%
c i  0.19 25 35 0 135 1786 1625 25% 9 124690 39952 91%
c i  0.19 25 35 0 135 1787 1625 25% 9 124690 39948 91%
c i  0.20 25 34 0 135 1834 1663 24% 9 124690 39947 91%
c i  0.21 25 31 0 135 1947 1736 24% 9 124690 39944 91%
c i  0.21 25 31 0 135 1967 1752 24% 9 124690 39942 91%
c i  0.25 25 111 0 136 2610 2355 47% 8 124690 39940 91%
c ]  0.27 25 139 0 136 3002 2721 55% 7 124690 39940 91%
c {  0.27 25 96 0 136 3002 2721 33% 2 124690 39940 91%
c F  0.28 25 96 0 137 3005 2724 33% 2 124690 39940 91%
c i  0.29 25 91 0 157 3083 2797 32% 2 124690 39938 91%
c i  0.29 25 89 0 162 3102 2814 32% 2 124690 39937 91%
c i  0.30 25 85 0 184 3225 2929 32% 3 124690 39935 91%
c i  0.30 25 83 0 188 3267 2966 32% 3 124690 39932 91%
c 
c  seconds  reductions  redundant  irredundant
c         MB    restarts       trail       variables
c          level   conflicts       glue         remaining
c 
c i  0.32 25 79 0 211 3401 3082 31% 3 124690 39930 91%
c i  0.33 25 78 0 227 3507 3172 32% 3 124690 39928 91%
c i  0.33 25 76 0 229 3543 3204 32% 3 124690 39926 91%
c i  0.33 25 76 0 229 3553 3213 32% 3 124690 39924 91%
... skipped 245 lines ...
c 
c W 39.32 56 32 0 14002 120035 105869 39% 7 114373 38766 89%
c i 39.34 56 32 0 14004 120119 105947 39% 7 114373 38762 89%
c i 39.34 56 32 0 14004 120128 105955 39% 7 114373 38759 89%
c i 39.40 56 32 0 14012 120285 106102 39% 7 114373 38755 89%
c i 39.45 56 32 0 14017 120400 106199 39% 7 114373 38740 88%
c i 39.45 56 32 0 14017 120425 106208 39% 7 114373 38717 88%
c i 39.89 56 32 0 14147 121036 106753 39% 7 114373 38713 88%
c i 40.85 56 32 0 14468 122637 108249 39% 7 114373 38709 88%
c i 41.47 56 32 0 14658 123915 109412 39% 7 114373 38708 88%
c i 41.69 56 32 0 14739 124282 109747 39% 7 114373 38706 88%
c i 41.85 56 32 0 14786 124644 110076 39% 7 114373 38704 88%
c i 42.37 56 32 0 14961 125469 110849 39% 7 114373 38701 88%
c i 42.37 56 32 0 14962 125474 110853 39% 7 114373 38698 88%
c i 42.37 56 32 0 14962 125492 110859 39% 7 114373 38697 88%
c } 43.20 56 32 0 15253 127004 112250 39% 7 114373 38697 88%
c [ 43.20 56 56 0 15253 127004 112250 53% 14 114373 38697 88%
c i 44.72 56 52 0 15256 133993 118798 54% 14 114373 38694 88%
c i 45.23 57 51 0 15257 136006 120644 54% 14 114373 38691 88%
c B 45.25 57 51 0 15257 136037 120674 54% 14 114373 38691 88%
c W 49.68 65 41 0 15262 153039 135722 52% 13 114119 38691 88%
c 
c  seconds  reductions       redundant    irredundant
c         MB     restarts            trail        variables
c          level      conflicts          glue          remaining
c 
c i 50.87 66 39 0 15262 157245 139317 52% 13 114119 38689 88%
c i 50.87 66 39 0 15262 157247 139318 52% 13 114119 38687 88%
c I 54.39 66 35 0 15265 171040 150918 52% 13 114119 38687 88%
c B 61.23 67 30 0 15276 190041 166629 51% 13 114119 38687 88%
c i 62.53 69 30 0 15277 194833 171165 51% 13 114119 38683 88%
c i 65.49 72 29 0 15280 204064 179853 51% 13 114119 38682 88%
c i 66.94 73 28 0 15283 208005 183018 51% 13 114119 38678 88%
c W 67.84 85 28 0 15284 210042 184492 51% 13 114078 38678 88%
c i 75.44 85 25 0 15292 230618 200078 50% 13 114078 38675 88%
c O 75.60 85 25 0 15292 231044 200462 50% 13 114078 38675 88%
c i 76.66 85 25 0 15292 232953 201690 50% 13 114078 38673 88%
c i 77.11 85 25 0 15292 233697 202067 50% 13 114078 38648 88%
c i 79.53 85 24 0 15293 239250 206644 50% 13 114078 38645 88%
c i 82.17 85 23 0 15293 245910 211705 49% 12 114078 38498 88%
c i 84.57 85 23 0 15293 250803 215687 49% 12 114078 38495 88%
c i 85.16 85 23 0 15294 251867 216386 49% 12 114078 38268 87%
c i 85.21 85 23 0 15294 251930 216426 49% 12 114078 15621 36%
c i 85.22 85 23 0 15294 251946 216428 49% 12 114078 13942 32%
c ] 85.23 85 23 0 15294 251949 216428 49% 12 114078 10515 24%
c 0 85.23 85 23 0 15294 251949 216428 49% 12 114078 10515 24%
c 
c --- [ result ] -------------------------------------------------------------
c 
s UNSATISFIABLE
c 
c --- [ run-time profiling ] -------------------------------------------------
c 
c process time taken by individual solving procedures
c (percentage relative to process time for solving)
c 
c        85.20  100.00% search
c        49.04   57.56% stable
c        35.42   41.57% unstable
c         0.74    0.86% walk
c         0.02    0.03% parse
c         0.01    0.01% lucky
c         0.00    0.00% simplify
c   =================================
c        85.20   99.97% solve
c 
c last line shows process time for solving
c (percentage relative to total process time)
c 
c --- [ statistics ] ---------------------------------------------------------
c 
c chronological:             75979        30.16 %  of conflicts
c conflicts:                251949      2957.04    per second
c decisions:                878488     10310.50    per second
c fixed:                     33266        75.98 %  of all variables
c learned:                  245763        97.54 %  per conflict
c learned_lits:           18208703       100.00 %  learned literals
c minimized:                     0         0.00 %  learned literals
c shrunken:                4814571        26.44 %  learned literals
c minishrunken:            4701015        25.82 %  learned literals
c otfs:                        878         0.35 %  of conflict
c propagations:          748869900         8.79 M  per second
c rephased:                     21     11997.57    interval
c restarts:                  15294        16.47    interval
c stabilizing:                   4        66.26 %  of conflicts
c subsumed:                  24028         6.49 %  of all clauses
c strengthened:                856         0.23 %  of all clauses
c walked:                        6     41991.50    interval
c 
c seconds are measured in process time for solving
c 
c --- [ resources ] ----------------------------------------------------------
c 
c total process time since initialization:        85.23    seconds
c total real time since initialization:           85.74    seconds
c maximum resident set size of process:          106.01    MB
c 
c --- [ shutting down ] ------------------------------------------------------
c 
c exit 20
